30
0 1 2 3 4 5 6 7 8 1 2 3 4 5 6 7 8 9 2 3 4 5 6 7 8 9 10 3 4 5
1 0 1 2 3 4 5 6 7 2 1 2 3 4 5 6 7 8 3 2 3 4 5 6 7 8 9 4 3 4
2 1 0 1 2 3 4 5 6 3 2 1 2 3 4 5 6 7 4 3 2 3 4 5 6 7 8 5 4 3
3 2 1 0 1 2 3 4 5 4 3 2 1 2 3 4 5 6 5 4 3 2 3 4 5 6 7 6 5 4
4 3 2 1 0 1 2 3 4 5 4 3 2 1 2 3 4 5 6 5 4 3 2 3 4 5 6 7 6 5
5 4 3 2 1 0 1 2 3 6 5 4 3 2 1 2 3 4 7 6 5 4 3 2 3 4 5 8 7 6
6 5 4 3 2 1 0 1 2 7 6 5 4 3 2 1 2 3 8 7 6 5 4 3 2 3 4 9 8 7
7 6 5 4 3 2 1 0 1 8 7 6 5 4 3 2 1 2 9 8 7 6 5 4 3 2 3 10 9 8
8 7 6 5 4 3 2 1 0 9 8 7 6 5 4 3 2 1 10 9 8 7 6 5 4 3 2 11 10 9
1 2 3 4 5 6 7 8 9 0 1 2 3 4 5 6 7 8 1 2 3 4 5 6 7 8 9 2 3 4
2 1 2 3 4 5 6 7 8 1 0 1 2 3 4 5 6 7 2 1 2 3 4 5 6 7 8 3 2 3
3 2 1 2 3 4 5 6 7 2 1 0 1 2 3 4 5 6 3 2 1 2 3 4 5 6 7 4 3 2
4 3 2 1 2 3 4 5 6 3 2 1 0 1 2 3 4 5 4 3 2 1 2 3 4 5 6 5 4 3
5 4 3 2 1 2 3 4 5 4 3 2 1 0 1 2 3 4 5 4 3 2 1 2 3 4 5 6 5 4
6 5 4 3 2 1 2 3 4 5 4 3 2 1 0 1 2 3 6 5 4 3 2 1 2 3 4 7 6 5
7 6 5 4 3 2 1 2 3 6 5 4 3 2 1 0 1 2 7 6 5 4 3 2 1 2 3 8 7 6
8 7 6 5 4 3 2 1 2 7 6 5 4 3 2 1 0 1 8 7 6 5 4 3 2 1 2 9 8 7
9 8 7 6 5 4 3 2 1 8 7 6 5 4 3 2 1 0 9 8 7 6 5 4 3 2 1 10 9 8
2 3 4 5 6 7 8 9 10 1 2 3 4 5 6 7 8 9 0 1 2 3 4 5 6 7 8 1 2 3
3 2 3 4 5 6 7 8 9 2 1 2 3 4 5 6 7 8 1 0 1 2 3 4 5 6 7 2 1 2
4 3 2 3 4 5 6 7 8 3 2 1 2 3 4 5 6 7 2 1 0 1 2 3 4 5 6 3 2 1
5 4 3 2 3 4 5 6 7 4 3 2 1 2 3 4 5 6 3 2 1 0 1 2 3 4 5 4 3 2
6 5 4 3 2 3 4 5 6 5 4 3 2 1 2 3 4 5 4 3 2 1 0 1 2 3 4 5 4 3
7 6 5 4 3 2 3 4 5 6 5 4 3 2 1 2 3 4 5 4 3 2 1 0 1 2 3 6 5 4
8 7 6 5 4 3 2 3 4 7 6 5 4 3 2 1 2 3 6 5 4 3 2 1 0 1 2 7 6 5
9 8 7 6 5 4 3 2 3 8 7 6 5 4 3 2 1 2 7 6 5 4 3 2 1 0 1 8 7 6
10 9 8 7 6 5 4 3 2 9 8 7 6 5 4 3 2 1 8 7 6 5 4 3 2 1 0 9 8 7
3 4 5 6 7 8 9 10 11 2 3 4 5 6 7 8 9 10 1 2 3 4 5 6 7 8 9 0 1 2
4 3 4 5 6 7 8 9 10 3 2 3 4 5 6 7 8 9 2 1 2 3 4 5 6 7 8 1 0 1
5 4 3 4 5 6 7 8 9 4 3 2 3 4 5 6 7 8 3 2 1 2 3 4 5 6 7 2 1 0
0 0 5 0 10 0 10 10 2 0 6 1 2 1 2 10 10 1 2 5 0 5 5 2 4 0 2 0 4 0
0 0 5 1 10 0 5 0 5 0 5 5 2 5 10 4 0 5 1 5 0 0 0 0 5 10 5 5 0 5
5 5 0 5 6 5 2 0 2 0 2 0 6 1 1 3 0 0 5 1 10 1 2 0 5 6 5 2 2 1
0 1 5 0 0 10 5 0 0 5 5 5 4 2 0 0 0 3 2 2 1 5 5 5 0 5 3 2 0 2
10 10 6 0 0 10 0 2 5 0 5 2 5 3 0 5 5 4 0 0 1 0 0 5 0 3 1 1 0 1
0 0 5 10 10 0 5 0 5 2 5 2 0 5 1 5 10 5 0 0 10 1 2 1 0 2 1 10 5 0
10 5 2 5 0 5 0 0 5 0 1 0 1 0 2 2 2 10 5 0 10 0 0 5 0 0 5 10 0 0
10 0 0 0 2 0 0 0 10 5 2 1 0 4 2 5 2 2 3 2 2 0 2 2 2 1 1 2 1 0
2 5 2 0 5 5 5 10 0 0 10 0 0 10 0 0 6 1 5 0 2 0 2 0 5 5 10 0 0 1
0 0 0 5 0 2 0 5 0 0 5 0 0 5 0 0 2 5 10 5 0 0 0 5 5 0 5 10 0 1
6 5 2 5 5 5 1 2 10 5 0 1 3 2 1 2 4 1 5 2 2 0 2 4 0 4 0 2 3 1
1 5 0 5 2 2 0 1 0 0 1 0 2 5 1 0 0 1 4 2 5 0 3 1 1 5 1 5 5 1
2 2 6 4 5 0 1 0 0 0 3 2 0 0 1 2 3 5 0 2 10 1 0 1 3 0 5 0 0 0
1 5 1 2 3 5 0 4 10 5 2 5 0 0 5 3 2 2 10 10 2 0 1 0 5 2 0 2 0 2
2 10 1 0 0 1 2 2 0 0 1 1 1 5 0 5 10 5 10 1 10 3 10 5 0 0 0 5 2 0
10 4 3 0 5 5 2 5 0 0 2 0 2 3 5 0 0 5 0 10 1 0 1 3 0 2 0 1 0 0
10 0 0 0 5 10 2 2 6 2 4 0 3 2 10 0 0 0 5 0 4 0 2 2 5 2 2 2 4 0
1 5 0 3 4 5 10 2 1 5 1 1 5 2 5 5 0 0 10 10 0 0 0 0 1 5 10 0 0 0
2 1 5 2 0 0 5 3 5 10 5 4 0 10 10 0 5 10 0 2 0 2 10 0 0 5 5 0 0 2
5 5 1 2 0 0 0 2 0 5 2 2 2 10 1 10 0 10 2 0 0 5 5 5 5 10 5 5 1 1
0 0 10 1 1 10 10 2 2 0 2 5 10 2 10 1 4 0 0 0 0 5 0 0 2 4 4 0 0 3
5 0 1 5 0 1 0 0 0 0 0 0 1 0 3 0 0 0 2 5 5 0 5 2 5 5 0 0 10 0
5 0 2 5 0 2 0 2 2 0 2 3 0 1 10 1 2 0 10 5 0 5 0 2 5 0 4 0 0 0
2 0 0 5 5 1 5 2 0 5 4 1 1 0 5 3 2 0 0 5 0 2 2 0 5 1 2 0 5 0
4 5 5 0 0 0 0 2 5 5 0 1 3 5 0 0 5 1 0 5 2 5 5 5 0 10 1 6 5 5
0 10 6 5 3 2 0 1 5 0 4 5 0 2 0 2 2 5 5 10 4 5 0 1 10 0 1 0 0 0
2 5 5 3 1 1 5 1 10 5 0 1 5 0 0 0 2 10 5 5 4 0 4 2 1 1 0 0 10 2
0 5 2 2 1 10 10 2 0 10 2 5 0 2 5 1 2 0 0 5 0 0 0 0 6 0 0 0 5 0
4 0 2 0 0 5 0 1 0 0 3 5 0 0 2 0 4 0 0 1 0 10 0 5 5 0 10 5 0 10
0 5 1 2 1 0 0 0 1 1 1 1 0 2 0 0 0 0 2 1 3 0 0 0 5 0 2 0 10 0